(declare-fun conv.i.i.i.i_10_214 () (_ BitVec 32))
(declare-fun phi.bo_10_216 () (_ BitVec 32))
(declare-fun i.i.i.i.i.i.neg_10_213 () (_ BitVec 32))
(declare-fun num.4.i.i.i.i.i_10_210 () (_ BitVec 32))
(declare-fun word.addr.4.lobit.i.i.i.i.i.neg_10_212 () (_ BitVec 64))
(declare-fun word.addr.4.i.i.i.i.i_10_209 () (_ BitVec 64))
(declare-fun num.3.i.i.i.i.i_10_202 () (_ BitVec 32))
(declare-fun sub22.i.i.i.i.i_10_206 () (_ BitVec 32))
(declare-fun tobool20.not.i.i.i.i.i_10_204 () (_ BitVec 1))
(declare-fun word.addr.3.i.i.i.i.i_10_201 () (_ BitVec 64))
(declare-fun shl23.i.i.i.i.i_10_208 () (_ BitVec 64))
(declare-fun num.2.i.i.i.i.i_10_194 () (_ BitVec 32))
(declare-fun sub16.i.i.i.i.i_10_198 () (_ BitVec 32))
(declare-fun tobool14.not.i.i.i.i.i_10_196 () (_ BitVec 1))
(declare-fun word.addr.2.i.i.i.i.i_10_193 () (_ BitVec 64))
(declare-fun shl17.i.i.i.i.i_10_200 () (_ BitVec 64))
(declare-fun num.1.i.i.i.i.i_10_186 () (_ BitVec 32))
(declare-fun sub10.i.i.i.i.i_10_190 () (_ BitVec 32))
(declare-fun tobool8.not.i.i.i.i.i_10_188 () (_ BitVec 1))
(declare-fun word.addr.1.i.i.i.i.i_10_185 () (_ BitVec 64))
(declare-fun shl11.i.i.i.i.i_10_192 () (_ BitVec 64))
(declare-fun spec.select17.i.i.i.i.i_10_178 () (_ BitVec 32))
(declare-fun sub4.i.i.i.i.i_10_182 () (_ BitVec 32))
(declare-fun tobool2.not.i.i.i.i.i_10_180 () (_ BitVec 1))
(declare-fun spec.select.i.i.i.i.i_10_175 () (_ BitVec 64))
(declare-fun shl5.i.i.i.i.i_10_184 () (_ BitVec 64))
(declare-fun tobool.not.i.i.i.i.i_10_172 () (_ BitVec 1))
(declare-fun xor.i.i.i_10_168 () (_ BitVec 64))
(declare-fun shl.i.i.i.i.i_10_174 () (_ BitVec 64))
(declare-fun i19_10_53 () (_ BitVec 1))
(declare-fun cmp.i246.i_10_104 () (_ BitVec 1))
(declare-fun cmp1.i248.i_10_107 () (_ BitVec 1))
(declare-fun cmp21.i.i_10_117 () (_ BitVec 1))
(declare-fun cmp40.i.i_10_122 () (_ BitVec 1))
(declare-fun cmp.i.i.i.i_10_170 () (_ BitVec 1))
(declare-fun dst_reg_10_155 () (_ BitVec 32))
(declare-fun dst_reg_10_90 () (_ BitVec 32))
(declare-fun dst_reg_10_154 () (_ BitVec 64))
(declare-fun storemerge_10_101 () (_ BitVec 64))
(declare-fun dst_reg_10_153 () (_ BitVec 64))
(declare-fun dst_reg_10_88 () (_ BitVec 64))
(declare-fun dst_reg_10_152 () (_ BitVec 64))
(declare-fun dst_reg_10_87 () (_ BitVec 64))
(declare-fun dst_reg_10_151 () (_ BitVec 64))
(declare-fun dst_reg_10_86 () (_ BitVec 64))
(declare-fun dst_reg_10_150 () (_ BitVec 64))
(declare-fun dst_reg_10_85 () (_ BitVec 64))
(declare-fun dst_reg_10_149 () (_ BitVec 64))
(declare-fun dst_reg_10_84 () (_ BitVec 64))
(declare-fun dst_reg_10_148 () (_ BitVec 32))
(declare-fun dst_reg_10_83 () (_ BitVec 32))
(declare-fun dst_reg_10_147 () (_ BitVec 32))
(declare-fun dst_reg_10_82 () (_ BitVec 32))
(declare-fun dst_reg_10_146 () (_ BitVec 32))
(declare-fun dst_reg_10_81 () (_ BitVec 32))
(declare-fun src_reg_10_165 () (_ BitVec 32))
(declare-fun src_reg_10_100 () (_ BitVec 32))
(declare-fun src_reg_10_164 () (_ BitVec 64))
(declare-fun src_reg_10_99 () (_ BitVec 64))
(declare-fun src_reg_10_163 () (_ BitVec 64))
(declare-fun src_reg_10_98 () (_ BitVec 64))
(declare-fun src_reg_10_162 () (_ BitVec 64))
(declare-fun src_reg_10_97 () (_ BitVec 64))
(declare-fun src_reg_10_161 () (_ BitVec 64))
(declare-fun src_reg_10_96 () (_ BitVec 64))
(declare-fun src_reg_10_160 () (_ BitVec 64))
(declare-fun src_reg_10_95 () (_ BitVec 64))
(declare-fun src_reg_10_159 () (_ BitVec 64))
(declare-fun src_reg_10_94 () (_ BitVec 64))
(declare-fun src_reg_10_158 () (_ BitVec 32))
(declare-fun src_reg_10_93 () (_ BitVec 32))
(declare-fun src_reg_10_157 () (_ BitVec 32))
(declare-fun src_reg_10_92 () (_ BitVec 32))
(declare-fun src_reg_10_156 () (_ BitVec 32))
(declare-fun src_reg_10_91 () (_ BitVec 32))
(declare-fun dst_reg_10_134 () (_ BitVec 32))
(declare-fun dst_reg_10_133 () (_ BitVec 64))
(declare-fun dst_reg_10_132 () (_ BitVec 64))
(declare-fun i28.i.i.sink_10_145 () (_ BitVec 64))
(declare-fun dst_reg_10_130 () (_ BitVec 64))
(declare-fun dst_reg_10_129 () (_ BitVec 64))
(declare-fun dst_reg_10_128 () (_ BitVec 64))
(declare-fun dst_reg_10_127 () (_ BitVec 32))
(declare-fun dst_reg_10_126 () (_ BitVec 32))
(declare-fun dst_reg_10_125 () (_ BitVec 32))
(declare-fun src_reg_10_144 () (_ BitVec 32))
(declare-fun src_reg_10_143 () (_ BitVec 64))
(declare-fun src_reg_10_142 () (_ BitVec 64))
(declare-fun src_reg_10_141 () (_ BitVec 64))
(declare-fun src_reg_10_140 () (_ BitVec 64))
(declare-fun src_reg_10_139 () (_ BitVec 64))
(declare-fun src_reg_10_138 () (_ BitVec 64))
(declare-fun src_reg_10_137 () (_ BitVec 32))
(declare-fun src_reg_10_136 () (_ BitVec 32))
(declare-fun src_reg_10_135 () (_ BitVec 32))
(declare-fun i.i253.i_10_166 () (_ BitVec 64))
(declare-fun i5.i255.i_10_167 () (_ BitVec 64))
(declare-fun cond17.i.i_10_114 () (_ BitVec 64))
(declare-fun cond36.i.i_10_120 () (_ BitVec 64))
(declare-fun i28.i.i_10_115 () (_ BitVec 64))
(declare-fun cond53.i.i_10_124 () (_ BitVec 64))
(declare-fun dst_reg_10_131 () (_ BitVec 64))
(declare-fun i29.i.i_10_118 () (_ BitVec 64))
(declare-fun cond.i250.i_10_110 () (_ BitVec 64))
(declare-fun or.i_10_54 () (_ BitVec 64))
(declare-fun cond46.i174.i_10_80 () (_ BitVec 64))
(declare-fun dst_reg_10_9 () (_ BitVec 32))
(declare-fun dst_reg_10_89 () (_ BitVec 64))
(declare-fun or187.i_10_65 () (_ BitVec 64))
(declare-fun cond31.i169.i_10_78 () (_ BitVec 64))
(declare-fun cond19.i165.i_10_76 () (_ BitVec 64))
(declare-fun cond.i159.i_10_73 () (_ BitVec 64))
(declare-fun and.i147.i_10_62 () (_ BitVec 64))
(declare-fun or.i144.i_10_59 () (_ BitVec 64))
(declare-fun dst_reg_10_2 () (_ BitVec 32))
(declare-fun dst_reg_10_1 () (_ BitVec 32))
(declare-fun src_reg_10_19 () (_ BitVec 32))
(declare-fun src_reg_10_18 () (_ BitVec 64))
(declare-fun src_reg_10_17 () (_ BitVec 64))
(declare-fun src_reg_10_16 () (_ BitVec 64))
(declare-fun src_reg_10_15 () (_ BitVec 64))
(declare-fun src_reg_10_14 () (_ BitVec 64))
(declare-fun src_reg_10_13 () (_ BitVec 64))
(declare-fun src_reg_10_12 () (_ BitVec 32))
(declare-fun src_reg_10_11 () (_ BitVec 32))
(declare-fun cond46.i.i.i_10_44 () (_ BitVec 64))
(declare-fun i.i245.i_10_102 () (_ BitVec 64))
(declare-fun i24.i.i_10_105 () (_ BitVec 64))
(declare-fun cmp31.i.i_10_119 () (_ BitVec 1))
(declare-fun i27.i.i_10_112 () (_ BitVec 64))
(declare-fun i26.i.i_10_111 () (_ BitVec 64))
(declare-fun cmp12.i.i_10_113 () (_ BitVec 1))
(declare-fun i25.i.i_10_108 () (_ BitVec 64))
(declare-fun cmp4.i.i_10_109 () (_ BitVec 1))
(declare-fun or10.i163.i_10_74 () (_ BitVec 64))
(declare-fun cmp41.i173.i_10_79 () (_ BitVec 1))
(declare-fun cond182.i_10_64 () (_ BitVec 64))
(declare-fun cmp26.i168.i_10_77 () (_ BitVec 1))
(declare-fun or187.sink.i_10_71 () (_ BitVec 64))
(declare-fun cmp14.i164.i_10_75 () (_ BitVec 1))
(declare-fun i_10_51 () (_ BitVec 64))
(declare-fun cond182.sink.i_10_69 () (_ BitVec 64))
(declare-fun cmp2.i158.i_10_72 () (_ BitVec 1))
(declare-fun .not.i_10_67 () (_ BitVec 1))
(declare-fun cond.i.i18.i_10_58 () (_ BitVec 64))
(declare-fun cond31.i.i28.i_10_50 () (_ BitVec 64))
(declare-fun cond31.i.i.i_10_41 () (_ BitVec 64))
(declare-fun cmp177.i_10_63 () (_ BitVec 1))
(declare-fun neg.i146.i_10_61 () (_ BitVec 64))
(declare-fun and.i.i5.i_10_46 () (_ BitVec 64))
(declare-fun and.i.i.i_10_29 () (_ BitVec 64))
(declare-fun src_reg1.sroa.15.0.copyload_10_22 () (_ BitVec 64))
(declare-fun cmp2.i.i17.i_10_57 () (_ BitVec 1))
(declare-fun cmp48.i.i_10_123 () (_ BitVec 1))
(declare-fun src_reg_10_257 () (_ BitVec 32))
(declare-fun src_reg_10_256 () (_ BitVec 64))
(declare-fun src_reg_10_255 () (_ BitVec 64))
(declare-fun src_reg_10_254 () (_ BitVec 64))
(declare-fun src_reg_10_253 () (_ BitVec 64))
(declare-fun src_reg_10_252 () (_ BitVec 64))
(declare-fun src_reg_10_251 () (_ BitVec 64))
(declare-fun src_reg_10_250 () (_ BitVec 32))
(declare-fun src_reg_10_249 () (_ BitVec 32))
(declare-fun src_reg_10_248 () (_ BitVec 32))
(declare-fun dst_reg_10_247 () (_ BitVec 32))
(declare-fun dst_reg_10_246 () (_ BitVec 64))
(declare-fun dst_reg_10_245 () (_ BitVec 64))
(declare-fun dst_reg_10_244 () (_ BitVec 64))
(declare-fun dst_reg_10_243 () (_ BitVec 64))
(declare-fun dst_reg_10_242 () (_ BitVec 64))
(declare-fun and.i1.i260.i_10_233 () (_ BitVec 64))
(declare-fun dst_reg_10_241 () (_ BitVec 64))
(declare-fun and4.i.i.i_10_236 () (_ BitVec 64))
(declare-fun dst_reg_10_240 () (_ BitVec 32))
(declare-fun dst_reg_10_239 () (_ BitVec 32))
(declare-fun dst_reg_10_238 () (_ BitVec 32))
(declare-fun retval.0.i.i.i.i_10_217 () (_ BitVec 32))
(declare-fun neg.i.i.i_10_235 () (_ BitVec 64))
(declare-fun or.i.i259.i_10_232 () (_ BitVec 64))
(declare-fun i11.i.i_10_231 () (_ BitVec 64))
(declare-fun retval.sroa.3.0.i.i.i_10_229 () (_ BitVec 64))
(declare-fun i9.i.i_10_230 () (_ BitVec 64))
(declare-fun retval.sroa.0.0.i.i.i_10_227 () (_ BitVec 64))
(declare-fun sub.i.i.i_10_224 () (_ BitVec 64))
(declare-fun cmp.i.i.i_10_219 () (_ BitVec 1))
(declare-fun and.i.i256.i_10_225 () (_ BitVec 64))
(declare-fun notmask.i.i.i_10_222 () (_ BitVec 64))
(declare-fun sh_prom.i.i.i_10_220 () (_ BitVec 64))
(declare-fun and6.i.i6.i_10_48 () (_ BitVec 64))
(declare-fun and6.i.i.i_10_31 () (_ BitVec 64))
(declare-fun src_reg1.sroa.21.0.copyload_10_23 () (_ BitVec 64))
(declare-fun cmp26.i.i27.i_10_49 () (_ BitVec 1))
(declare-fun src_reg1.sroa.11.0.copyload_10_24 () (_ BitVec 64))
(declare-fun src_reg1.sroa.3.0.copyload_10_25 () (_ BitVec 64))
(declare-fun or10.i.i.i_10_36 () (_ BitVec 64))
(declare-fun i19.i.i.i_10_42 () (_ BitVec 64))
(declare-fun cmp41.i.i.i_10_43 () (_ BitVec 1))
(declare-fun dst_reg_10_8 () (_ BitVec 64))
(declare-fun i18.i.i.i_10_39 () (_ BitVec 64))
(declare-fun cmp26.i.i.i_10_40 () (_ BitVec 1))
(declare-fun dst_reg_10_7 () (_ BitVec 64))
(declare-fun cond19.i.i.i_10_38 () (_ BitVec 64))
(declare-fun i17.i.i.i_10_35 () (_ BitVec 64))
(declare-fun cmp14.i.i.i_10_37 () (_ BitVec 1))
(declare-fun dst_reg_10_6 () (_ BitVec 64))
(declare-fun cond.i.i.i_10_34 () (_ BitVec 64))
(declare-fun i.i.i.i_10_32 () (_ BitVec 64))
(declare-fun cmp2.i.i.i_10_33 () (_ BitVec 1))
(declare-fun dst_reg_10_5 () (_ BitVec 64))
(declare-fun i6.i.i_10_27 () (_ BitVec 64))
(declare-fun i4.i.i_10_26 () (_ BitVec 64))
(declare-fun dst_reg_10_4 () (_ BitVec 64))
(declare-fun dst_reg_10_3 () (_ BitVec 64))
(declare-fun src_reg_10_10 () (_ BitVec 32))
(declare-fun dst_reg_10_0 () (_ BitVec 32))
(assert (let ((a!1 (and (= cmp.i246.i_10_104 #b0)
                (or (= i19_10_53 #b0) (= i19_10_53 #b1))))
      (a!9 (=> (= i19_10_53 #b1)
               (and (= or.i_10_54 (bvor and.i.i.i_10_29 and.i.i5.i_10_46)))))
      (a!10 (=> (= i19_10_53 #b0)
                (and (ite (bvsgt src_reg1.sroa.15.0.copyload_10_22
                                 and.i.i5.i_10_46)
                          (= cmp2.i.i17.i_10_57 #b1)
                          (= cmp2.i.i17.i_10_57 #b0))
                     (ite (= cmp2.i.i17.i_10_57 #b1)
                          (= cond.i.i18.i_10_58
                             src_reg1.sroa.15.0.copyload_10_22)
                          (= cond.i.i18.i_10_58 and.i.i5.i_10_46))
                     (= or.i144.i_10_59 (bvor and.i.i.i_10_29 and.i.i5.i_10_46))
                     (= neg.i146.i_10_61
                        (bvxor or.i144.i_10_59 #xffffffffffffffff))
                     (= and.i147.i_10_62 (bvand i_10_51 neg.i146.i_10_61))
                     (ite (bvugt cond31.i.i.i_10_41 cond31.i.i28.i_10_50)
                          (= cmp177.i_10_63 #b1)
                          (= cmp177.i_10_63 #b0))
                     (ite (= cmp177.i_10_63 #b1)
                          (= cond182.i_10_64 cond31.i.i.i_10_41)
                          (= cond182.i_10_64 cond31.i.i28.i_10_50))
                     (= or187.i_10_65 (bvor i_10_51 or.i144.i_10_59))
                     (ite (bvsgt cond.i.i18.i_10_58 #xffffffffffffffff)
                          (= .not.i_10_67 #b1)
                          (= .not.i_10_67 #b0))
                     (ite (= .not.i_10_67 #b1)
                          (= cond182.sink.i_10_69 cond182.i_10_64)
                          (= cond182.sink.i_10_69 #x8000000000000000))
                     (ite (= .not.i_10_67 #b1)
                          (= or187.sink.i_10_71 or187.i_10_65)
                          (= or187.sink.i_10_71 #x7fffffffffffffff))
                     (ite (bvsgt cond182.sink.i_10_69 or.i144.i_10_59)
                          (= cmp2.i158.i_10_72 #b1)
                          (= cmp2.i158.i_10_72 #b0))
                     (ite (= cmp2.i158.i_10_72 #b1)
                          (= cond.i159.i_10_73 cond182.sink.i_10_69)
                          (= cond.i159.i_10_73 or.i144.i_10_59))
                     (= or10.i163.i_10_74 (bvor i_10_51 or.i144.i_10_59))
                     (ite (bvult or187.sink.i_10_71 or10.i163.i_10_74)
                          (= cmp14.i164.i_10_75 #b1)
                          (= cmp14.i164.i_10_75 #b0))
                     (ite (= cmp14.i164.i_10_75 #b1)
                          (= cond19.i165.i_10_76 or187.sink.i_10_71)
                          (= cond19.i165.i_10_76 or10.i163.i_10_74))
                     (ite (bvugt cond182.i_10_64 or.i144.i_10_59)
                          (= cmp26.i168.i_10_77 #b1)
                          (= cmp26.i168.i_10_77 #b0))
                     (ite (= cmp26.i168.i_10_77 #b1)
                          (= cond31.i169.i_10_78 cond182.i_10_64)
                          (= cond31.i169.i_10_78 or.i144.i_10_59))
                     (ite (bvult or187.i_10_65 or10.i163.i_10_74)
                          (= cmp41.i173.i_10_79 #b1)
                          (= cmp41.i173.i_10_79 #b0))
                     (ite (= cmp41.i173.i_10_79 #b1)
                          (= cond46.i174.i_10_80 or187.i_10_65)
                          (= cond46.i174.i_10_80 or10.i163.i_10_74)))))
      (a!15 (and (= dst_reg_10_86 i.i245.i_10_102)
                 (ite (bvsgt i.i245.i_10_102 #xffffffffffffffff)
                      (= cmp.i246.i_10_104 #b1)
                      (= cmp.i246.i_10_104 #b0))
                 (=> (= i19_10_53 #b1)
                     (and (= #x00000001 src_reg_10_91)
                          (= src_reg_10_11 src_reg_10_92)
                          (= src_reg_10_12 src_reg_10_93)
                          (= src_reg_10_13 src_reg_10_94)
                          (= src_reg_10_14 src_reg_10_95)
                          (= src_reg_10_15 src_reg_10_96)
                          (= src_reg_10_16 src_reg_10_97)
                          (= src_reg_10_17 src_reg_10_98)
                          (= src_reg_10_18 src_reg_10_99)
                          (= src_reg_10_19 src_reg_10_100)
                          (= #x00000001 dst_reg_10_81)
                          (= dst_reg_10_1 dst_reg_10_82)
                          (= #x00000000 dst_reg_10_83)
                          (= or.i_10_54 dst_reg_10_84)
                          (= #x0000000000000000 dst_reg_10_85)
                          (= or.i_10_54 dst_reg_10_86)
                          (= or.i_10_54 dst_reg_10_87)
                          (= or.i_10_54 dst_reg_10_88)
                          (= cond46.i.i.i_10_44 dst_reg_10_89)
                          (= dst_reg_10_9 dst_reg_10_90)))
                 (=> (= i19_10_53 #b0)
                     (and (= #x00000001 src_reg_10_91)
                          (= src_reg_10_11 src_reg_10_92)
                          (= src_reg_10_12 src_reg_10_93)
                          (= src_reg_10_13 src_reg_10_94)
                          (= src_reg_10_14 src_reg_10_95)
                          (= src_reg_10_15 src_reg_10_96)
                          (= src_reg_10_16 src_reg_10_97)
                          (= src_reg_10_17 src_reg_10_98)
                          (= src_reg_10_18 src_reg_10_99)
                          (= src_reg_10_19 src_reg_10_100)
                          (= #x00000001 dst_reg_10_81)
                          (= dst_reg_10_1 dst_reg_10_82)
                          (= dst_reg_10_2 dst_reg_10_83)
                          (= or.i144.i_10_59 dst_reg_10_84)
                          (= and.i147.i_10_62 dst_reg_10_85)
                          (= cond.i159.i_10_73 dst_reg_10_86)
                          (= cond19.i165.i_10_76 dst_reg_10_87)
                          (= cond31.i169.i_10_78 dst_reg_10_88)
                          (= or187.i_10_65 dst_reg_10_89)
                          (= dst_reg_10_9 dst_reg_10_90)))
                 (=> (= i19_10_53 #b0)
                     (= storemerge_10_101 cond46.i174.i_10_80))
                 (=> (= i19_10_53 #b1) (= storemerge_10_101 or.i_10_54)))))
(let ((a!2 (and (= cmp40.i.i_10_122 #b1)
                (and (= cmp21.i.i_10_117 #b0)
                     (and (= cmp1.i248.i_10_107 #b0) a!1))))
      (a!3 (or (and (= cmp1.i248.i_10_107 #b1) a!1)
               (and (= cmp.i246.i_10_104 #b1)
                    (or (= i19_10_53 #b0) (= i19_10_53 #b1)))))
      (a!5 (and (= cmp40.i.i_10_122 #b0)
                (and (= cmp21.i.i_10_117 #b0)
                     (and (= cmp1.i248.i_10_107 #b0) a!1))))
      (a!11 (=> a!1
                (and (= dst_reg_10_87 i24.i.i_10_105)
                     (ite (bvslt i24.i.i_10_105 #x0000000000000000)
                          (= cmp1.i248.i_10_107 #b1)
                          (= cmp1.i248.i_10_107 #b0)))))
      (a!13 (=> (and (= cmp1.i248.i_10_107 #b0) a!1)
                (and (= storemerge_10_101 i28.i.i_10_115)
                     (ite (bvsgt i28.i.i_10_115 #xffffffffffffffff)
                          (= cmp21.i.i_10_117 #b1)
                          (= cmp21.i.i_10_117 #b0))
                     (= dst_reg_10_88 i29.i.i_10_118))))
      (a!14 (=> (and (= cmp21.i.i_10_117 #b1)
                     (and (= cmp1.i248.i_10_107 #b0) a!1))
                (and (ite (bvult i24.i.i_10_105 i28.i.i_10_115)
                          (= cmp31.i.i_10_119 #b1)
                          (= cmp31.i.i_10_119 #b0))
                     (ite (= cmp31.i.i_10_119 #b1)
                          (= cond36.i.i_10_120 i24.i.i_10_105)
                          (= cond36.i.i_10_120 i28.i.i_10_115)))))
      (a!16 (=> (and (= cmp21.i.i_10_117 #b0)
                     (and (= cmp1.i248.i_10_107 #b0) a!1))
                (and (ite (bvslt i29.i.i_10_118 #x0000000000000000)
                          (= cmp40.i.i_10_122 #b1)
                          (= cmp40.i.i_10_122 #b0)))))
      (a!17 (=> (and (= cmp21.i.i_10_117 #b1)
                     (and (= cmp1.i248.i_10_107 #b0) a!1))
                (and (= src_reg_10_91 src_reg_10_135)
                     (= src_reg_10_92 src_reg_10_136)
                     (= src_reg_10_93 src_reg_10_137)
                     (= src_reg_10_94 src_reg_10_138)
                     (= src_reg_10_95 src_reg_10_139)
                     (= src_reg_10_96 src_reg_10_140)
                     (= src_reg_10_97 src_reg_10_141)
                     (= src_reg_10_98 src_reg_10_142)
                     (= src_reg_10_99 src_reg_10_143)
                     (= src_reg_10_100 src_reg_10_144)
                     (= dst_reg_10_81 dst_reg_10_125)
                     (= dst_reg_10_82 dst_reg_10_126)
                     (= dst_reg_10_83 dst_reg_10_127)
                     (= dst_reg_10_84 dst_reg_10_128)
                     (= dst_reg_10_85 dst_reg_10_129)
                     (= i29.i.i_10_118 dst_reg_10_130)
                     (= dst_reg_10_87 dst_reg_10_131)
                     (= dst_reg_10_88 dst_reg_10_132)
                     (= cond36.i.i_10_120 dst_reg_10_133)
                     (= dst_reg_10_90 dst_reg_10_134))))
      (a!18 (=> (and (= cmp21.i.i_10_117 #b1)
                     (and (= cmp1.i248.i_10_107 #b0) a!1))
                (= i28.i.i.sink_10_145 cond36.i.i_10_120))))
(let ((a!4 (or a!2
               (and (= cmp21.i.i_10_117 #b1)
                    (and (= cmp1.i248.i_10_107 #b0) a!1))
               a!3))
      (a!8 (=> a!2
               (and (ite (bvugt i.i245.i_10_102 i29.i.i_10_118)
                         (= cmp48.i.i_10_123 #b1)
                         (= cmp48.i.i_10_123 #b0))
                    (ite (= cmp48.i.i_10_123 #b1)
                         (= cond53.i.i_10_124 i.i245.i_10_102)
                         (= cond53.i.i_10_124 i29.i.i_10_118)))))
      (a!12 (=> a!3
                (and (= dst_reg_10_88 i25.i.i_10_108)
                     (ite (bvugt i.i245.i_10_102 i25.i.i_10_108)
                          (= cmp4.i.i_10_109 #b1)
                          (= cmp4.i.i_10_109 #b0))
                     (ite (= cmp4.i.i_10_109 #b1)
                          (= cond.i250.i_10_110 i.i245.i_10_102)
                          (= cond.i250.i_10_110 i25.i.i_10_108))
                     (= dst_reg_10_87 i26.i.i_10_111)
                     (= storemerge_10_101 i27.i.i_10_112)
                     (ite (bvult i26.i.i_10_111 i27.i.i_10_112)
                          (= cmp12.i.i_10_113 #b1)
                          (= cmp12.i.i_10_113 #b0))
                     (ite (= cmp12.i.i_10_113 #b1)
                          (= cond17.i.i_10_114 i26.i.i_10_111)
                          (= cond17.i.i_10_114 i27.i.i_10_112)))))
      (a!19 (and (=> a!3
                     (and (= src_reg_10_91 src_reg_10_135)
                          (= src_reg_10_92 src_reg_10_136)
                          (= src_reg_10_93 src_reg_10_137)
                          (= src_reg_10_94 src_reg_10_138)
                          (= src_reg_10_95 src_reg_10_139)
                          (= src_reg_10_96 src_reg_10_140)
                          (= src_reg_10_97 src_reg_10_141)
                          (= src_reg_10_98 src_reg_10_142)
                          (= src_reg_10_99 src_reg_10_143)
                          (= src_reg_10_100 src_reg_10_144)
                          (= dst_reg_10_81 dst_reg_10_125)
                          (= dst_reg_10_82 dst_reg_10_126)
                          (= dst_reg_10_83 dst_reg_10_127)
                          (= dst_reg_10_84 dst_reg_10_128)
                          (= dst_reg_10_85 dst_reg_10_129)
                          (= cond.i250.i_10_110 dst_reg_10_130)
                          (= dst_reg_10_87 dst_reg_10_131)
                          (= cond.i250.i_10_110 dst_reg_10_132)
                          (= cond17.i.i_10_114 dst_reg_10_133)
                          (= dst_reg_10_90 dst_reg_10_134)))
                 a!17
                 (=> a!2
                     (and (= src_reg_10_91 src_reg_10_135)
                          (= src_reg_10_92 src_reg_10_136)
                          (= src_reg_10_93 src_reg_10_137)
                          (= src_reg_10_94 src_reg_10_138)
                          (= src_reg_10_95 src_reg_10_139)
                          (= src_reg_10_96 src_reg_10_140)
                          (= src_reg_10_97 src_reg_10_141)
                          (= src_reg_10_98 src_reg_10_142)
                          (= src_reg_10_99 src_reg_10_143)
                          (= src_reg_10_100 src_reg_10_144)
                          (= dst_reg_10_81 dst_reg_10_125)
                          (= dst_reg_10_82 dst_reg_10_126)
                          (= dst_reg_10_83 dst_reg_10_127)
                          (= dst_reg_10_84 dst_reg_10_128)
                          (= dst_reg_10_85 dst_reg_10_129)
                          (= cond53.i.i_10_124 dst_reg_10_130)
                          (= dst_reg_10_87 dst_reg_10_131)
                          (= cond53.i.i_10_124 dst_reg_10_132)
                          (= storemerge_10_101 dst_reg_10_133)
                          (= dst_reg_10_90 dst_reg_10_134)))
                 (=> a!2 (= i28.i.i.sink_10_145 i28.i.i_10_115))
                 a!18
                 (=> a!3 (= i28.i.i.sink_10_145 cond17.i.i_10_114)))))
(let ((a!6 (and (ite (bvugt retval.0.i.i.i.i_10_217 #x0000003f)
                     (= cmp.i.i.i_10_219 #b1)
                     (= cmp.i.i.i_10_219 #b0))
                (= sh_prom.i.i.i_10_220
                   ((_ zero_extend 32) retval.0.i.i.i.i_10_217))
                (= notmask.i.i.i_10_222
                   (bvshl #xffffffffffffffff sh_prom.i.i.i_10_220))
                (= sub.i.i.i_10_224
                   (bvxor notmask.i.i.i_10_222 #xffffffffffffffff))
                (= and.i.i256.i_10_225
                   (bvand notmask.i.i.i_10_222 i.i253.i_10_166))
                (ite (= cmp.i.i.i_10_219 #b1)
                     (= retval.sroa.0.0.i.i.i_10_227 #x0000000000000000)
                     (= retval.sroa.0.0.i.i.i_10_227 and.i.i256.i_10_225))
                (ite (= cmp.i.i.i_10_219 #b1)
                     (= retval.sroa.3.0.i.i.i_10_229 #xffffffffffffffff)
                     (= retval.sroa.3.0.i.i.i_10_229 sub.i.i.i_10_224))
                (= dst_reg_10_84 i9.i.i_10_230)
                (= dst_reg_10_85 i11.i.i_10_231)
                (= or.i.i259.i_10_232
                   (bvor retval.sroa.0.0.i.i.i_10_227 i9.i.i_10_230))
                (= and.i1.i260.i_10_233
                   (bvand retval.sroa.3.0.i.i.i_10_229 i11.i.i_10_231))
                (= neg.i.i.i_10_235
                   (bvxor and.i1.i260.i_10_233 #xffffffffffffffff))
                (= and4.i.i.i_10_236
                   (bvand or.i.i259.i_10_232 neg.i.i.i_10_235))
                (=> (and (= cmp.i.i.i.i_10_170 #b0) (or a!4 a!5))
                    (= retval.0.i.i.i.i_10_217 phi.bo_10_216))
                (=> (and (= cmp.i.i.i.i_10_170 #b1) (or a!4 a!5))
                    (= retval.0.i.i.i.i_10_217 #x00000000))
                (= dst_reg_10_146 dst_reg_10_238)
                (= dst_reg_10_147 dst_reg_10_239)
                (= dst_reg_10_148 dst_reg_10_240)
                (= and4.i.i.i_10_236 dst_reg_10_241)
                (= and.i1.i260.i_10_233 dst_reg_10_242)
                (= dst_reg_10_151 dst_reg_10_243)
                (= dst_reg_10_152 dst_reg_10_244)
                (= dst_reg_10_153 dst_reg_10_245)
                (= dst_reg_10_154 dst_reg_10_246)
                (= dst_reg_10_155 dst_reg_10_247)
                (= src_reg_10_156 src_reg_10_248)
                (= src_reg_10_157 src_reg_10_249)
                (= src_reg_10_158 src_reg_10_250)
                (= src_reg_10_159 src_reg_10_251)
                (= src_reg_10_160 src_reg_10_252)
                (= src_reg_10_161 src_reg_10_253)
                (= src_reg_10_162 src_reg_10_254)
                (= src_reg_10_163 src_reg_10_255)
                (= src_reg_10_164 src_reg_10_256)
                (= src_reg_10_165 src_reg_10_257)))
      (a!20 (and (= dst_reg_10_153 i.i253.i_10_166)
                 (= dst_reg_10_154 i5.i255.i_10_167)
                 (= xor.i.i.i_10_168 (bvxor i5.i255.i_10_167 i.i253.i_10_166))
                 (ite (= xor.i.i.i_10_168 #x0000000000000000)
                      (= cmp.i.i.i.i_10_170 #b1)
                      (= cmp.i.i.i.i_10_170 #b0))
                 (=> a!4
                     (and (= src_reg_10_135 src_reg_10_156)
                          (= src_reg_10_136 src_reg_10_157)
                          (= src_reg_10_137 src_reg_10_158)
                          (= src_reg_10_138 src_reg_10_159)
                          (= src_reg_10_139 src_reg_10_160)
                          (= src_reg_10_140 src_reg_10_161)
                          (= src_reg_10_141 src_reg_10_162)
                          (= src_reg_10_142 src_reg_10_163)
                          (= src_reg_10_143 src_reg_10_164)
                          (= src_reg_10_144 src_reg_10_165)
                          (= dst_reg_10_125 dst_reg_10_146)
                          (= dst_reg_10_126 dst_reg_10_147)
                          (= dst_reg_10_127 dst_reg_10_148)
                          (= dst_reg_10_128 dst_reg_10_149)
                          (= dst_reg_10_129 dst_reg_10_150)
                          (= dst_reg_10_130 dst_reg_10_151)
                          (= i28.i.i.sink_10_145 dst_reg_10_152)
                          (= dst_reg_10_132 dst_reg_10_153)
                          (= dst_reg_10_133 dst_reg_10_154)
                          (= dst_reg_10_134 dst_reg_10_155)))
                 (=> a!5
                     (and (= src_reg_10_91 src_reg_10_156)
                          (= src_reg_10_92 src_reg_10_157)
                          (= src_reg_10_93 src_reg_10_158)
                          (= src_reg_10_94 src_reg_10_159)
                          (= src_reg_10_95 src_reg_10_160)
                          (= src_reg_10_96 src_reg_10_161)
                          (= src_reg_10_97 src_reg_10_162)
                          (= src_reg_10_98 src_reg_10_163)
                          (= src_reg_10_99 src_reg_10_164)
                          (= src_reg_10_100 src_reg_10_165)
                          (= dst_reg_10_81 dst_reg_10_146)
                          (= dst_reg_10_82 dst_reg_10_147)
                          (= dst_reg_10_83 dst_reg_10_148)
                          (= dst_reg_10_84 dst_reg_10_149)
                          (= dst_reg_10_85 dst_reg_10_150)
                          (= dst_reg_10_86 dst_reg_10_151)
                          (= dst_reg_10_87 dst_reg_10_152)
                          (= dst_reg_10_88 dst_reg_10_153)
                          (= storemerge_10_101 dst_reg_10_154)
                          (= dst_reg_10_90 dst_reg_10_155)))))
      (a!21 (=> (and (= cmp.i.i.i.i_10_170 #b0) (or a!4 a!5))
                (and (ite (bvult xor.i.i.i_10_168 #x0000000100000000)
                          (= tobool.not.i.i.i.i.i_10_172 #b1)
                          (= tobool.not.i.i.i.i.i_10_172 #b0))
                     (= shl.i.i.i.i.i_10_174
                        (bvshl xor.i.i.i_10_168 #x0000000000000020))
                     (ite (= tobool.not.i.i.i.i.i_10_172 #b1)
                          (= spec.select.i.i.i.i.i_10_175 shl.i.i.i.i.i_10_174)
                          (= spec.select.i.i.i.i.i_10_175 xor.i.i.i_10_168))
                     (ite (= tobool.not.i.i.i.i.i_10_172 #b1)
                          (= spec.select17.i.i.i.i.i_10_178 #x0000001f)
                          (= spec.select17.i.i.i.i.i_10_178 #x0000003f))
                     (ite (bvult spec.select.i.i.i.i.i_10_175
                                 #x0001000000000000)
                          (= tobool2.not.i.i.i.i.i_10_180 #b1)
                          (= tobool2.not.i.i.i.i.i_10_180 #b0))
                     (= sub4.i.i.i.i.i_10_182
                        (bvadd spec.select17.i.i.i.i.i_10_178 #xfffffff0))
                     (= shl5.i.i.i.i.i_10_184
                        (bvshl spec.select.i.i.i.i.i_10_175 #x0000000000000010))
                     (ite (= tobool2.not.i.i.i.i.i_10_180 #b1)
                          (= word.addr.1.i.i.i.i.i_10_185 shl5.i.i.i.i.i_10_184)
                          (= word.addr.1.i.i.i.i.i_10_185
                             spec.select.i.i.i.i.i_10_175))
                     (ite (= tobool2.not.i.i.i.i.i_10_180 #b1)
                          (= num.1.i.i.i.i.i_10_186 sub4.i.i.i.i.i_10_182)
                          (= num.1.i.i.i.i.i_10_186
                             spec.select17.i.i.i.i.i_10_178))
                     (ite (bvult word.addr.1.i.i.i.i.i_10_185
                                 #x0100000000000000)
                          (= tobool8.not.i.i.i.i.i_10_188 #b1)
                          (= tobool8.not.i.i.i.i.i_10_188 #b0))
                     (= sub10.i.i.i.i.i_10_190
                        (bvadd num.1.i.i.i.i.i_10_186 #xfffffff8))
                     (= shl11.i.i.i.i.i_10_192
                        (bvshl word.addr.1.i.i.i.i.i_10_185 #x0000000000000008))
                     (ite (= tobool8.not.i.i.i.i.i_10_188 #b1)
                          (= word.addr.2.i.i.i.i.i_10_193
                             shl11.i.i.i.i.i_10_192)
                          (= word.addr.2.i.i.i.i.i_10_193
                             word.addr.1.i.i.i.i.i_10_185))
                     (ite (= tobool8.not.i.i.i.i.i_10_188 #b1)
                          (= num.2.i.i.i.i.i_10_194 sub10.i.i.i.i.i_10_190)
                          (= num.2.i.i.i.i.i_10_194 num.1.i.i.i.i.i_10_186))
                     (ite (bvult word.addr.2.i.i.i.i.i_10_193
                                 #x1000000000000000)
                          (= tobool14.not.i.i.i.i.i_10_196 #b1)
                          (= tobool14.not.i.i.i.i.i_10_196 #b0))
                     (= sub16.i.i.i.i.i_10_198
                        (bvadd num.2.i.i.i.i.i_10_194 #xfffffffc))
                     (= shl17.i.i.i.i.i_10_200
                        (bvshl word.addr.2.i.i.i.i.i_10_193 #x0000000000000004))
                     (ite (= tobool14.not.i.i.i.i.i_10_196 #b1)
                          (= word.addr.3.i.i.i.i.i_10_201
                             shl17.i.i.i.i.i_10_200)
                          (= word.addr.3.i.i.i.i.i_10_201
                             word.addr.2.i.i.i.i.i_10_193))
                     (ite (= tobool14.not.i.i.i.i.i_10_196 #b1)
                          (= num.3.i.i.i.i.i_10_202 sub16.i.i.i.i.i_10_198)
                          (= num.3.i.i.i.i.i_10_202 num.2.i.i.i.i.i_10_194))
                     (ite (bvult word.addr.3.i.i.i.i.i_10_201
                                 #x4000000000000000)
                          (= tobool20.not.i.i.i.i.i_10_204 #b1)
                          (= tobool20.not.i.i.i.i.i_10_204 #b0))
                     (= sub22.i.i.i.i.i_10_206
                        (bvadd num.3.i.i.i.i.i_10_202 #x000000fe))
                     (= shl23.i.i.i.i.i_10_208
                        (bvshl word.addr.3.i.i.i.i.i_10_201 #x0000000000000002))
                     (ite (= tobool20.not.i.i.i.i.i_10_204 #b1)
                          (= word.addr.4.i.i.i.i.i_10_209
                             shl23.i.i.i.i.i_10_208)
                          (= word.addr.4.i.i.i.i.i_10_209
                             word.addr.3.i.i.i.i.i_10_201))
                     (ite (= tobool20.not.i.i.i.i.i_10_204 #b1)
                          (= num.4.i.i.i.i.i_10_210 sub22.i.i.i.i.i_10_206)
                          (= num.4.i.i.i.i.i_10_210 num.3.i.i.i.i.i_10_202))
                     (= word.addr.4.lobit.i.i.i.i.i.neg_10_212
                        (bvlshr word.addr.4.i.i.i.i.i_10_209 #x000000000000003f))
                     (= i.i.i.i.i.i.neg_10_213
                        ((_ extract 31 0)
                          word.addr.4.lobit.i.i.i.i.i.neg_10_212))
                     (= conv.i.i.i.i_10_214
                        (bvadd num.4.i.i.i.i.i_10_210 i.i.i.i.i.i.neg_10_213))
                     (= phi.bo_10_216 (bvand conv.i.i.i.i_10_214 #x000000ff))))))
(let ((a!7 (=> (or (and (= cmp.i.i.i.i_10_170 #b0) (or a!4 a!5))
                   (and (= cmp.i.i.i.i_10_170 #b1) (or a!4 a!5)))
               a!6)))
  (and (= dst_reg_10_0 dst_reg_10_0)
       (= dst_reg_10_1 dst_reg_10_1)
       (= dst_reg_10_2 dst_reg_10_2)
       (= dst_reg_10_3 dst_reg_10_3)
       (= dst_reg_10_4 dst_reg_10_4)
       (= dst_reg_10_5 dst_reg_10_5)
       (= dst_reg_10_6 dst_reg_10_6)
       (= dst_reg_10_7 dst_reg_10_7)
       (= dst_reg_10_8 dst_reg_10_8)
       (= dst_reg_10_9 dst_reg_10_9)
       (= src_reg_10_10 src_reg_10_10)
       (= src_reg_10_11 src_reg_10_11)
       (= src_reg_10_12 src_reg_10_12)
       (= src_reg_10_13 src_reg_10_13)
       (= src_reg_10_14 src_reg_10_14)
       (= src_reg_10_15 src_reg_10_15)
       (= src_reg_10_16 src_reg_10_16)
       (= src_reg_10_17 src_reg_10_17)
       (= src_reg_10_18 src_reg_10_18)
       (= src_reg_10_19 src_reg_10_19)
       (= src_reg_10_15 src_reg1.sroa.15.0.copyload_10_22)
       (= src_reg_10_17 src_reg1.sroa.21.0.copyload_10_23)
       (= src_reg_10_14 src_reg1.sroa.11.0.copyload_10_24)
       (= src_reg_10_13 src_reg1.sroa.3.0.copyload_10_25)
       (= dst_reg_10_3 i4.i.i_10_26)
       (= dst_reg_10_4 i6.i.i_10_27)
       (= and.i.i.i_10_29 (bvand i4.i.i_10_26 #x00000000ffffffff))
       (= and6.i.i.i_10_31 (bvand i6.i.i_10_27 #x00000000ffffffff))
       (= dst_reg_10_5 i.i.i.i_10_32)
       (ite (bvsgt i.i.i.i_10_32 and.i.i.i_10_29)
            (= cmp2.i.i.i_10_33 #b1)
            (= cmp2.i.i.i_10_33 #b0))
       (ite (= cmp2.i.i.i_10_33 #b1)
            (= cond.i.i.i_10_34 i.i.i.i_10_32)
            (= cond.i.i.i_10_34 and.i.i.i_10_29))
       (= dst_reg_10_6 i17.i.i.i_10_35)
       (= or10.i.i.i_10_36 (bvor and6.i.i.i_10_31 and.i.i.i_10_29))
       (ite (bvslt i17.i.i.i_10_35 or10.i.i.i_10_36)
            (= cmp14.i.i.i_10_37 #b1)
            (= cmp14.i.i.i_10_37 #b0))
       (ite (= cmp14.i.i.i_10_37 #b1)
            (= cond19.i.i.i_10_38 i17.i.i.i_10_35)
            (= cond19.i.i.i_10_38 or10.i.i.i_10_36))
       (= dst_reg_10_7 i18.i.i.i_10_39)
       (ite (bvugt i18.i.i.i_10_39 and.i.i.i_10_29)
            (= cmp26.i.i.i_10_40 #b1)
            (= cmp26.i.i.i_10_40 #b0))
       (ite (= cmp26.i.i.i_10_40 #b1)
            (= cond31.i.i.i_10_41 i18.i.i.i_10_39)
            (= cond31.i.i.i_10_41 and.i.i.i_10_29))
       (= dst_reg_10_8 i19.i.i.i_10_42)
       (ite (bvult i19.i.i.i_10_42 or10.i.i.i_10_36)
            (= cmp41.i.i.i_10_43 #b1)
            (= cmp41.i.i.i_10_43 #b0))
       (ite (= cmp41.i.i.i_10_43 #b1)
            (= cond46.i.i.i_10_44 i19.i.i.i_10_42)
            (= cond46.i.i.i_10_44 or10.i.i.i_10_36))
       (= and.i.i5.i_10_46
          (bvand src_reg1.sroa.3.0.copyload_10_25 #x00000000ffffffff))
       (= and6.i.i6.i_10_48
          (bvand src_reg1.sroa.11.0.copyload_10_24 #x00000000ffffffff))
       (ite (bvugt src_reg1.sroa.21.0.copyload_10_23 and.i.i5.i_10_46)
            (= cmp26.i.i27.i_10_49 #b1)
            (= cmp26.i.i27.i_10_49 #b0))
       (ite (= cmp26.i.i27.i_10_49 #b1)
            (= cond31.i.i28.i_10_50 src_reg1.sroa.21.0.copyload_10_23)
            (= cond31.i.i28.i_10_50 and.i.i5.i_10_46))
       (= i_10_51 (bvor and6.i.i.i_10_31 and6.i.i6.i_10_48))
       (ite (= i_10_51 #x0000000000000000) (= i19_10_53 #b1) (= i19_10_53 #b0))
       a!7
       a!8
       a!9
       a!10
       a!11
       a!12
       a!13
       a!14
       (=> (or (= i19_10_53 #b0) (= i19_10_53 #b1)) a!15)
       a!16
       (=> a!4 a!19)
       (=> (or a!4 a!5) a!20)
       a!21)))))))

;{"dst_reg":["dst_reg_10_0",[""],"dst_reg_10_1","dst_reg_10_2",["dst_reg_10_3","dst_reg_10_4"],"dst_reg_10_5","dst_reg_10_6","dst_reg_10_7","dst_reg_10_8","dst_reg_10_9"],"src_reg":["src_reg_10_10",[""],"src_reg_10_11","src_reg_10_12",["src_reg_10_13","src_reg_10_14"],"src_reg_10_15","src_reg_10_16","src_reg_10_17","src_reg_10_18","src_reg_10_19"]}
;{"dst_reg":["dst_reg_10_238",[""],"dst_reg_10_239","dst_reg_10_240",["dst_reg_10_241","dst_reg_10_242"],"dst_reg_10_243","dst_reg_10_244","dst_reg_10_245","dst_reg_10_246","dst_reg_10_247"],"src_reg":["src_reg_10_248",[""],"src_reg_10_249","src_reg_10_250",["src_reg_10_251","src_reg_10_252"],"src_reg_10_253","src_reg_10_254","src_reg_10_255","src_reg_10_256","src_reg_10_257"]}
